p cnf 252 2634
1 2 3 4 5 6 7 0
-1 -2 0
-1 -3 0
-1 -4 0
-1 -5 0
-1 -6 0
-1 -7 0
-2 -3 0
-2 -4 0
-2 -5 0
-2 -6 0
-2 -7 0
-3 -4 0
-3 -5 0
-3 -6 0
-3 -7 0
-4 -5 0
-4 -6 0
-4 -7 0
-5 -6 0
-5 -7 0
-6 -7 0
8 9 10 11 12 13 14 0
-8 -9 0
-8 -10 0
-8 -11 0
-8 -12 0
-8 -13 0
-8 -14 0
-9 -10 0
-9 -11 0
-9 -12 0
-9 -13 0
-9 -14 0
-10 -11 0
-10 -12 0
-10 -13 0
-10 -14 0
-11 -12 0
-11 -13 0
-11 -14 0
-12 -13 0
-12 -14 0
-13 -14 0
15 16 17 18 19 20 21 0
-15 -16 0
-15 -17 0
-15 -18 0
-15 -19 0
-15 -20 0
-15 -21 0
-16 -17 0
-16 -18 0
-16 -19 0
-16 -20 0
-16 -21 0
-17 -18 0
-17 -19 0
-17 -20 0
-17 -21 0
-18 -19 0
-18 -20 0
-18 -21 0
-19 -20 0
-19 -21 0
-20 -21 0
22 23 24 25 26 27 28 0
-22 -23 0
-22 -24 0
-22 -25 0
-22 -26 0
-22 -27 0
-22 -28 0
-23 -24 0
-23 -25 0
-23 -26 0
-23 -27 0
-23 -28 0
-24 -25 0
-24 -26 0
-24 -27 0
-24 -28 0
-25 -26 0
-25 -27 0
-25 -28 0
-26 -27 0
-26 -28 0
-27 -28 0
29 30 31 32 33 34 35 0
-29 -30 0
-29 -31 0
-29 -32 0
-29 -33 0
-29 -34 0
-29 -35 0
-30 -31 0
-30 -32 0
-30 -33 0
-30 -34 0
-30 -35 0
-31 -32 0
-31 -33 0
-31 -34 0
-31 -35 0
-32 -33 0
-32 -34 0
-32 -35 0
-33 -34 0
-33 -35 0
-34 -35 0
36 37 38 39 40 41 42 0
-36 -37 0
-36 -38 0
-36 -39 0
-36 -40 0
-36 -41 0
-36 -42 0
-37 -38 0
-37 -39 0
-37 -40 0
-37 -41 0
-37 -42 0
-38 -39 0
-38 -40 0
-38 -41 0
-38 -42 0
-39 -40 0
-39 -41 0
-39 -42 0
-40 -41 0
-40 -42 0
-41 -42 0
43 44 45 46 47 48 49 0
-43 -44 0
-43 -45 0
-43 -46 0
-43 -47 0
-43 -48 0
-43 -49 0
-44 -45 0
-44 -46 0
-44 -47 0
-44 -48 0
-44 -49 0
-45 -46 0
-45 -47 0
-45 -48 0
-45 -49 0
-46 -47 0
-46 -48 0
-46 -49 0
-47 -48 0
-47 -49 0
-48 -49 0
50 51 52 53 54 55 56 0
-50 -51 0
-50 -52 0
-50 -53 0
-50 -54 0
-50 -55 0
-50 -56 0
-51 -52 0
-51 -53 0
-51 -54 0
-51 -55 0
-51 -56 0
-52 -53 0
-52 -54 0
-52 -55 0
-52 -56 0
-53 -54 0
-53 -55 0
-53 -56 0
-54 -55 0
-54 -56 0
-55 -56 0
57 58 59 60 61 62 63 0
-57 -58 0
-57 -59 0
-57 -60 0
-57 -61 0
-57 -62 0
-57 -63 0
-58 -59 0
-58 -60 0
-58 -61 0
-58 -62 0
-58 -63 0
-59 -60 0
-59 -61 0
-59 -62 0
-59 -63 0
-60 -61 0
-60 -62 0
-60 -63 0
-61 -62 0
-61 -63 0
-62 -63 0
64 65 66 67 68 69 70 0
-64 -65 0
-64 -66 0
-64 -67 0
-64 -68 0
-64 -69 0
-64 -70 0
-65 -66 0
-65 -67 0
-65 -68 0
-65 -69 0
-65 -70 0
-66 -67 0
-66 -68 0
-66 -69 0
-66 -70 0
-67 -68 0
-67 -69 0
-67 -70 0
-68 -69 0
-68 -70 0
-69 -70 0
71 72 73 74 75 76 77 0
-71 -72 0
-71 -73 0
-71 -74 0
-71 -75 0
-71 -76 0
-71 -77 0
-72 -73 0
-72 -74 0
-72 -75 0
-72 -76 0
-72 -77 0
-73 -74 0
-73 -75 0
-73 -76 0
-73 -77 0
-74 -75 0
-74 -76 0
-74 -77 0
-75 -76 0
-75 -77 0
-76 -77 0
78 79 80 81 82 83 84 0
-78 -79 0
-78 -80 0
-78 -81 0
-78 -82 0
-78 -83 0
-78 -84 0
-79 -80 0
-79 -81 0
-79 -82 0
-79 -83 0
-79 -84 0
-80 -81 0
-80 -82 0
-80 -83 0
-80 -84 0
-81 -82 0
-81 -83 0
-81 -84 0
-82 -83 0
-82 -84 0
-83 -84 0
85 86 87 88 89 90 91 0
-85 -86 0
-85 -87 0
-85 -88 0
-85 -89 0
-85 -90 0
-85 -91 0
-86 -87 0
-86 -88 0
-86 -89 0
-86 -90 0
-86 -91 0
-87 -88 0
-87 -89 0
-87 -90 0
-87 -91 0
-88 -89 0
-88 -90 0
-88 -91 0
-89 -90 0
-89 -91 0
-90 -91 0
92 93 94 95 96 97 98 0
-92 -93 0
-92 -94 0
-92 -95 0
-92 -96 0
-92 -97 0
-92 -98 0
-93 -94 0
-93 -95 0
-93 -96 0
-93 -97 0
-93 -98 0
-94 -95 0
-94 -96 0
-94 -97 0
-94 -98 0
-95 -96 0
-95 -97 0
-95 -98 0
-96 -97 0
-96 -98 0
-97 -98 0
99 100 101 102 103 104 105 0
-99 -100 0
-99 -101 0
-99 -102 0
-99 -103 0
-99 -104 0
-99 -105 0
-100 -101 0
-100 -102 0
-100 -103 0
-100 -104 0
-100 -105 0
-101 -102 0
-101 -103 0
-101 -104 0
-101 -105 0
-102 -103 0
-102 -104 0
-102 -105 0
-103 -104 0
-103 -105 0
-104 -105 0
106 107 108 109 110 111 112 0
-106 -107 0
-106 -108 0
-106 -109 0
-106 -110 0
-106 -111 0
-106 -112 0
-107 -108 0
-107 -109 0
-107 -110 0
-107 -111 0
-107 -112 0
-108 -109 0
-108 -110 0
-108 -111 0
-108 -112 0
-109 -110 0
-109 -111 0
-109 -112 0
-110 -111 0
-110 -112 0
-111 -112 0
113 114 115 116 117 118 119 0
-113 -114 0
-113 -115 0
-113 -116 0
-113 -117 0
-113 -118 0
-113 -119 0
-114 -115 0
-114 -116 0
-114 -117 0
-114 -118 0
-114 -119 0
-115 -116 0
-115 -117 0
-115 -118 0
-115 -119 0
-116 -117 0
-116 -118 0
-116 -119 0
-117 -118 0
-117 -119 0
-118 -119 0
120 121 122 123 124 125 126 0
-120 -121 0
-120 -122 0
-120 -123 0
-120 -124 0
-120 -125 0
-120 -126 0
-121 -122 0
-121 -123 0
-121 -124 0
-121 -125 0
-121 -126 0
-122 -123 0
-122 -124 0
-122 -125 0
-122 -126 0
-123 -124 0
-123 -125 0
-123 -126 0
-124 -125 0
-124 -126 0
-125 -126 0
127 128 129 130 131 132 133 0
-127 -128 0
-127 -129 0
-127 -130 0
-127 -131 0
-127 -132 0
-127 -133 0
-128 -129 0
-128 -130 0
-128 -131 0
-128 -132 0
-128 -133 0
-129 -130 0
-129 -131 0
-129 -132 0
-129 -133 0
-130 -131 0
-130 -132 0
-130 -133 0
-131 -132 0
-131 -133 0
-132 -133 0
134 135 136 137 138 139 140 0
-134 -135 0
-134 -136 0
-134 -137 0
-134 -138 0
-134 -139 0
-134 -140 0
-135 -136 0
-135 -137 0
-135 -138 0
-135 -139 0
-135 -140 0
-136 -137 0
-136 -138 0
-136 -139 0
-136 -140 0
-137 -138 0
-137 -139 0
-137 -140 0
-138 -139 0
-138 -140 0
-139 -140 0
141 142 143 144 145 146 147 0
-141 -142 0
-141 -143 0
-141 -144 0
-141 -145 0
-141 -146 0
-141 -147 0
-142 -143 0
-142 -144 0
-142 -145 0
-142 -146 0
-142 -147 0
-143 -144 0
-143 -145 0
-143 -146 0
-143 -147 0
-144 -145 0
-144 -146 0
-144 -147 0
-145 -146 0
-145 -147 0
-146 -147 0
148 149 150 151 152 153 154 0
-148 -149 0
-148 -150 0
-148 -151 0
-148 -152 0
-148 -153 0
-148 -154 0
-149 -150 0
-149 -151 0
-149 -152 0
-149 -153 0
-149 -154 0
-150 -151 0
-150 -152 0
-150 -153 0
-150 -154 0
-151 -152 0
-151 -153 0
-151 -154 0
-152 -153 0
-152 -154 0
-153 -154 0
155 156 157 158 159 160 161 0
-155 -156 0
-155 -157 0
-155 -158 0
-155 -159 0
-155 -160 0
-155 -161 0
-156 -157 0
-156 -158 0
-156 -159 0
-156 -160 0
-156 -161 0
-157 -158 0
-157 -159 0
-157 -160 0
-157 -161 0
-158 -159 0
-158 -160 0
-158 -161 0
-159 -160 0
-159 -161 0
-160 -161 0
162 163 164 165 166 167 168 0
-162 -163 0
-162 -164 0
-162 -165 0
-162 -166 0
-162 -167 0
-162 -168 0
-163 -164 0
-163 -165 0
-163 -166 0
-163 -167 0
-163 -168 0
-164 -165 0
-164 -166 0
-164 -167 0
-164 -168 0
-165 -166 0
-165 -167 0
-165 -168 0
-166 -167 0
-166 -168 0
-167 -168 0
169 170 171 172 173 174 175 0
-169 -170 0
-169 -171 0
-169 -172 0
-169 -173 0
-169 -174 0
-169 -175 0
-170 -171 0
-170 -172 0
-170 -173 0
-170 -174 0
-170 -175 0
-171 -172 0
-171 -173 0
-171 -174 0
-171 -175 0
-172 -173 0
-172 -174 0
-172 -175 0
-173 -174 0
-173 -175 0
-174 -175 0
176 177 178 179 180 181 182 0
-176 -177 0
-176 -178 0
-176 -179 0
-176 -180 0
-176 -181 0
-176 -182 0
-177 -178 0
-177 -179 0
-177 -180 0
-177 -181 0
-177 -182 0
-178 -179 0
-178 -180 0
-178 -181 0
-178 -182 0
-179 -180 0
-179 -181 0
-179 -182 0
-180 -181 0
-180 -182 0
-181 -182 0
183 184 185 186 187 188 189 0
-183 -184 0
-183 -185 0
-183 -186 0
-183 -187 0
-183 -188 0
-183 -189 0
-184 -185 0
-184 -186 0
-184 -187 0
-184 -188 0
-184 -189 0
-185 -186 0
-185 -187 0
-185 -188 0
-185 -189 0
-186 -187 0
-186 -188 0
-186 -189 0
-187 -188 0
-187 -189 0
-188 -189 0
190 191 192 193 194 195 196 0
-190 -191 0
-190 -192 0
-190 -193 0
-190 -194 0
-190 -195 0
-190 -196 0
-191 -192 0
-191 -193 0
-191 -194 0
-191 -195 0
-191 -196 0
-192 -193 0
-192 -194 0
-192 -195 0
-192 -196 0
-193 -194 0
-193 -195 0
-193 -196 0
-194 -195 0
-194 -196 0
-195 -196 0
197 198 199 200 201 202 203 0
-197 -198 0
-197 -199 0
-197 -200 0
-197 -201 0
-197 -202 0
-197 -203 0
-198 -199 0
-198 -200 0
-198 -201 0
-198 -202 0
-198 -203 0
-199 -200 0
-199 -201 0
-199 -202 0
-199 -203 0
-200 -201 0
-200 -202 0
-200 -203 0
-201 -202 0
-201 -203 0
-202 -203 0
204 205 206 207 208 209 210 0
-204 -205 0
-204 -206 0
-204 -207 0
-204 -208 0
-204 -209 0
-204 -210 0
-205 -206 0
-205 -207 0
-205 -208 0
-205 -209 0
-205 -210 0
-206 -207 0
-206 -208 0
-206 -209 0
-206 -210 0
-207 -208 0
-207 -209 0
-207 -210 0
-208 -209 0
-208 -210 0
-209 -210 0
211 212 213 214 215 216 217 0
-211 -212 0
-211 -213 0
-211 -214 0
-211 -215 0
-211 -216 0
-211 -217 0
-212 -213 0
-212 -214 0
-212 -215 0
-212 -216 0
-212 -217 0
-213 -214 0
-213 -215 0
-213 -216 0
-213 -217 0
-214 -215 0
-214 -216 0
-214 -217 0
-215 -216 0
-215 -217 0
-216 -217 0
218 219 220 221 222 223 224 0
-218 -219 0
-218 -220 0
-218 -221 0
-218 -222 0
-218 -223 0
-218 -224 0
-219 -220 0
-219 -221 0
-219 -222 0
-219 -223 0
-219 -224 0
-220 -221 0
-220 -222 0
-220 -223 0
-220 -224 0
-221 -222 0
-221 -223 0
-221 -224 0
-222 -223 0
-222 -224 0
-223 -224 0
225 226 227 228 229 230 231 0
-225 -226 0
-225 -227 0
-225 -228 0
-225 -229 0
-225 -230 0
-225 -231 0
-226 -227 0
-226 -228 0
-226 -229 0
-226 -230 0
-226 -231 0
-227 -228 0
-227 -229 0
-227 -230 0
-227 -231 0
-228 -229 0
-228 -230 0
-228 -231 0
-229 -230 0
-229 -231 0
-230 -231 0
232 233 234 235 236 237 238 0
-232 -233 0
-232 -234 0
-232 -235 0
-232 -236 0
-232 -237 0
-232 -238 0
-233 -234 0
-233 -235 0
-233 -236 0
-233 -237 0
-233 -238 0
-234 -235 0
-234 -236 0
-234 -237 0
-234 -238 0
-235 -236 0
-235 -237 0
-235 -238 0
-236 -237 0
-236 -238 0
-237 -238 0
239 240 241 242 243 244 245 0
-239 -240 0
-239 -241 0
-239 -242 0
-239 -243 0
-239 -244 0
-239 -245 0
-240 -241 0
-240 -242 0
-240 -243 0
-240 -244 0
-240 -245 0
-241 -242 0
-241 -243 0
-241 -244 0
-241 -245 0
-242 -243 0
-242 -244 0
-242 -245 0
-243 -244 0
-243 -245 0
-244 -245 0
246 247 248 249 250 251 252 0
-246 -247 0
-246 -248 0
-246 -249 0
-246 -250 0
-246 -251 0
-246 -252 0
-247 -248 0
-247 -249 0
-247 -250 0
-247 -251 0
-247 -252 0
-248 -249 0
-248 -250 0
-248 -251 0
-248 -252 0
-249 -250 0
-249 -251 0
-249 -252 0
-250 -251 0
-250 -252 0
-251 -252 0
-1 -8 0
-1 -15 0
-1 -22 0
-1 -29 0
-1 -36 0
-8 -15 0
-8 -22 0
-8 -29 0
-8 -36 0
-15 -22 0
-15 -29 0
-15 -36 0
-22 -29 0
-22 -36 0
-29 -36 0
-2 -9 0
-2 -16 0
-2 -23 0
-2 -30 0
-2 -37 0
-9 -16 0
-9 -23 0
-9 -30 0
-9 -37 0
-16 -23 0
-16 -30 0
-16 -37 0
-23 -30 0
-23 -37 0
-30 -37 0
-3 -10 0
-3 -17 0
-3 -24 0
-3 -31 0
-3 -38 0
-10 -17 0
-10 -24 0
-10 -31 0
-10 -38 0
-17 -24 0
-17 -31 0
-17 -38 0
-24 -31 0
-24 -38 0
-31 -38 0
-4 -11 0
-4 -18 0
-4 -25 0
-4 -32 0
-4 -39 0
-11 -18 0
-11 -25 0
-11 -32 0
-11 -39 0
-18 -25 0
-18 -32 0
-18 -39 0
-25 -32 0
-25 -39 0
-32 -39 0
-5 -12 0
-5 -19 0
-5 -26 0
-5 -33 0
-5 -40 0
-12 -19 0
-12 -26 0
-12 -33 0
-12 -40 0
-19 -26 0
-19 -33 0
-19 -40 0
-26 -33 0
-26 -40 0
-33 -40 0
-6 -13 0
-6 -20 0
-6 -27 0
-6 -34 0
-6 -41 0
-13 -20 0
-13 -27 0
-13 -34 0
-13 -41 0
-20 -27 0
-20 -34 0
-20 -41 0
-27 -34 0
-27 -41 0
-34 -41 0
-43 -50 0
-43 -57 0
-43 -64 0
-43 -71 0
-43 -78 0
-50 -57 0
-50 -64 0
-50 -71 0
-50 -78 0
-57 -64 0
-57 -71 0
-57 -78 0
-64 -71 0
-64 -78 0
-71 -78 0
-44 -51 0
-44 -58 0
-44 -65 0
-44 -72 0
-44 -79 0
-51 -58 0
-51 -65 0
-51 -72 0
-51 -79 0
-58 -65 0
-58 -72 0
-58 -79 0
-65 -72 0
-65 -79 0
-72 -79 0
-45 -52 0
-45 -59 0
-45 -66 0
-45 -73 0
-45 -80 0
-52 -59 0
-52 -66 0
-52 -73 0
-52 -80 0
-59 -66 0
-59 -73 0
-59 -80 0
-66 -73 0
-66 -80 0
-73 -80 0
-46 -53 0
-46 -60 0
-46 -67 0
-46 -74 0
-46 -81 0
-53 -60 0
-53 -67 0
-53 -74 0
-53 -81 0
-60 -67 0
-60 -74 0
-60 -81 0
-67 -74 0
-67 -81 0
-74 -81 0
-47 -54 0
-47 -61 0
-47 -68 0
-47 -75 0
-47 -82 0
-54 -61 0
-54 -68 0
-54 -75 0
-54 -82 0
-61 -68 0
-61 -75 0
-61 -82 0
-68 -75 0
-68 -82 0
-75 -82 0
-48 -55 0
-48 -62 0
-48 -69 0
-48 -76 0
-48 -83 0
-55 -62 0
-55 -69 0
-55 -76 0
-55 -83 0
-62 -69 0
-62 -76 0
-62 -83 0
-69 -76 0
-69 -83 0
-76 -83 0
-85 -92 0
-85 -99 0
-85 -106 0
-85 -113 0
-85 -120 0
-92 -99 0
-92 -106 0
-92 -113 0
-92 -120 0
-99 -106 0
-99 -113 0
-99 -120 0
-106 -113 0
-106 -120 0
-113 -120 0
-86 -93 0
-86 -100 0
-86 -107 0
-86 -114 0
-86 -121 0
-93 -100 0
-93 -107 0
-93 -114 0
-93 -121 0
-100 -107 0
-100 -114 0
-100 -121 0
-107 -114 0
-107 -121 0
-114 -121 0
-87 -94 0
-87 -101 0
-87 -108 0
-87 -115 0
-87 -122 0
-94 -101 0
-94 -108 0
-94 -115 0
-94 -122 0
-101 -108 0
-101 -115 0
-101 -122 0
-108 -115 0
-108 -122 0
-115 -122 0
-88 -95 0
-88 -102 0
-88 -109 0
-88 -116 0
-88 -123 0
-95 -102 0
-95 -109 0
-95 -116 0
-95 -123 0
-102 -109 0
-102 -116 0
-102 -123 0
-109 -116 0
-109 -123 0
-116 -123 0
-89 -96 0
-89 -103 0
-89 -110 0
-89 -117 0
-89 -124 0
-96 -103 0
-96 -110 0
-96 -117 0
-96 -124 0
-103 -110 0
-103 -117 0
-103 -124 0
-110 -117 0
-110 -124 0
-117 -124 0
-90 -97 0
-90 -104 0
-90 -111 0
-90 -118 0
-90 -125 0
-97 -104 0
-97 -111 0
-97 -118 0
-97 -125 0
-104 -111 0
-104 -118 0
-104 -125 0
-111 -118 0
-111 -125 0
-118 -125 0
-127 -134 0
-127 -141 0
-127 -148 0
-127 -155 0
-127 -162 0
-134 -141 0
-134 -148 0
-134 -155 0
-134 -162 0
-141 -148 0
-141 -155 0
-141 -162 0
-148 -155 0
-148 -162 0
-155 -162 0
-128 -135 0
-128 -142 0
-128 -149 0
-128 -156 0
-128 -163 0
-135 -142 0
-135 -149 0
-135 -156 0
-135 -163 0
-142 -149 0
-142 -156 0
-142 -163 0
-149 -156 0
-149 -163 0
-156 -163 0
-129 -136 0
-129 -143 0
-129 -150 0
-129 -157 0
-129 -164 0
-136 -143 0
-136 -150 0
-136 -157 0
-136 -164 0
-143 -150 0
-143 -157 0
-143 -164 0
-150 -157 0
-150 -164 0
-157 -164 0
-130 -137 0
-130 -144 0
-130 -151 0
-130 -158 0
-130 -165 0
-137 -144 0
-137 -151 0
-137 -158 0
-137 -165 0
-144 -151 0
-144 -158 0
-144 -165 0
-151 -158 0
-151 -165 0
-158 -165 0
-131 -138 0
-131 -145 0
-131 -152 0
-131 -159 0
-131 -166 0
-138 -145 0
-138 -152 0
-138 -159 0
-138 -166 0
-145 -152 0
-145 -159 0
-145 -166 0
-152 -159 0
-152 -166 0
-159 -166 0
-132 -139 0
-132 -146 0
-132 -153 0
-132 -160 0
-132 -167 0
-139 -146 0
-139 -153 0
-139 -160 0
-139 -167 0
-146 -153 0
-146 -160 0
-146 -167 0
-153 -160 0
-153 -167 0
-160 -167 0
-169 -176 0
-169 -183 0
-169 -190 0
-169 -197 0
-169 -204 0
-176 -183 0
-176 -190 0
-176 -197 0
-176 -204 0
-183 -190 0
-183 -197 0
-183 -204 0
-190 -197 0
-190 -204 0
-197 -204 0
-170 -177 0
-170 -184 0
-170 -191 0
-170 -198 0
-170 -205 0
-177 -184 0
-177 -191 0
-177 -198 0
-177 -205 0
-184 -191 0
-184 -198 0
-184 -205 0
-191 -198 0
-191 -205 0
-198 -205 0
-171 -178 0
-171 -185 0
-171 -192 0
-171 -199 0
-171 -206 0
-178 -185 0
-178 -192 0
-178 -199 0
-178 -206 0
-185 -192 0
-185 -199 0
-185 -206 0
-192 -199 0
-192 -206 0
-199 -206 0
-172 -179 0
-172 -186 0
-172 -193 0
-172 -200 0
-172 -207 0
-179 -186 0
-179 -193 0
-179 -200 0
-179 -207 0
-186 -193 0
-186 -200 0
-186 -207 0
-193 -200 0
-193 -207 0
-200 -207 0
-173 -180 0
-173 -187 0
-173 -194 0
-173 -201 0
-173 -208 0
-180 -187 0
-180 -194 0
-180 -201 0
-180 -208 0
-187 -194 0
-187 -201 0
-187 -208 0
-194 -201 0
-194 -208 0
-201 -208 0
-174 -181 0
-174 -188 0
-174 -195 0
-174 -202 0
-174 -209 0
-181 -188 0
-181 -195 0
-181 -202 0
-181 -209 0
-188 -195 0
-188 -202 0
-188 -209 0
-195 -202 0
-195 -209 0
-202 -209 0
-211 -218 0
-211 -225 0
-211 -232 0
-211 -239 0
-211 -246 0
-218 -225 0
-218 -232 0
-218 -239 0
-218 -246 0
-225 -232 0
-225 -239 0
-225 -246 0
-232 -239 0
-232 -246 0
-239 -246 0
-212 -219 0
-212 -226 0
-212 -233 0
-212 -240 0
-212 -247 0
-219 -226 0
-219 -233 0
-219 -240 0
-219 -247 0
-226 -233 0
-226 -240 0
-226 -247 0
-233 -240 0
-233 -247 0
-240 -247 0
-213 -220 0
-213 -227 0
-213 -234 0
-213 -241 0
-213 -248 0
-220 -227 0
-220 -234 0
-220 -241 0
-220 -248 0
-227 -234 0
-227 -241 0
-227 -248 0
-234 -241 0
-234 -248 0
-241 -248 0
-214 -221 0
-214 -228 0
-214 -235 0
-214 -242 0
-214 -249 0
-221 -228 0
-221 -235 0
-221 -242 0
-221 -249 0
-228 -235 0
-228 -242 0
-228 -249 0
-235 -242 0
-235 -249 0
-242 -249 0
-215 -222 0
-215 -229 0
-215 -236 0
-215 -243 0
-215 -250 0
-222 -229 0
-222 -236 0
-222 -243 0
-222 -250 0
-229 -236 0
-229 -243 0
-229 -250 0
-236 -243 0
-236 -250 0
-243 -250 0
-216 -223 0
-216 -230 0
-216 -237 0
-216 -244 0
-216 -251 0
-223 -230 0
-223 -237 0
-223 -244 0
-223 -251 0
-230 -237 0
-230 -244 0
-230 -251 0
-237 -244 0
-237 -251 0
-244 -251 0
-1 -43 0
-1 -85 0
-1 -127 0
-1 -169 0
-1 -211 0
-43 -85 0
-43 -127 0
-43 -169 0
-43 -211 0
-85 -127 0
-85 -169 0
-85 -211 0
-127 -169 0
-127 -211 0
-169 -211 0
-2 -44 0
-2 -86 0
-2 -128 0
-2 -170 0
-2 -212 0
-44 -86 0
-44 -128 0
-44 -170 0
-44 -212 0
-86 -128 0
-86 -170 0
-86 -212 0
-128 -170 0
-128 -212 0
-170 -212 0
-3 -45 0
-3 -87 0
-3 -129 0
-3 -171 0
-3 -213 0
-45 -87 0
-45 -129 0
-45 -171 0
-45 -213 0
-87 -129 0
-87 -171 0
-87 -213 0
-129 -171 0
-129 -213 0
-171 -213 0
-4 -46 0
-4 -88 0
-4 -130 0
-4 -172 0
-4 -214 0
-46 -88 0
-46 -130 0
-46 -172 0
-46 -214 0
-88 -130 0
-88 -172 0
-88 -214 0
-130 -172 0
-130 -214 0
-172 -214 0
-5 -47 0
-5 -89 0
-5 -131 0
-5 -173 0
-5 -215 0
-47 -89 0
-47 -131 0
-47 -173 0
-47 -215 0
-89 -131 0
-89 -173 0
-89 -215 0
-131 -173 0
-131 -215 0
-173 -215 0
-6 -48 0
-6 -90 0
-6 -132 0
-6 -174 0
-6 -216 0
-48 -90 0
-48 -132 0
-48 -174 0
-48 -216 0
-90 -132 0
-90 -174 0
-90 -216 0
-132 -174 0
-132 -216 0
-174 -216 0
-8 -50 0
-8 -92 0
-8 -134 0
-8 -176 0
-8 -218 0
-50 -92 0
-50 -134 0
-50 -176 0
-50 -218 0
-92 -134 0
-92 -176 0
-92 -218 0
-134 -176 0
-134 -218 0
-176 -218 0
-9 -51 0
-9 -93 0
-9 -135 0
-9 -177 0
-9 -219 0
-51 -93 0
-51 -135 0
-51 -177 0
-51 -219 0
-93 -135 0
-93 -177 0
-93 -219 0
-135 -177 0
-135 -219 0
-177 -219 0
-10 -52 0
-10 -94 0
-10 -136 0
-10 -178 0
-10 -220 0
-52 -94 0
-52 -136 0
-52 -178 0
-52 -220 0
-94 -136 0
-94 -178 0
-94 -220 0
-136 -178 0
-136 -220 0
-178 -220 0
-11 -53 0
-11 -95 0
-11 -137 0
-11 -179 0
-11 -221 0
-53 -95 0
-53 -137 0
-53 -179 0
-53 -221 0
-95 -137 0
-95 -179 0
-95 -221 0
-137 -179 0
-137 -221 0
-179 -221 0
-12 -54 0
-12 -96 0
-12 -138 0
-12 -180 0
-12 -222 0
-54 -96 0
-54 -138 0
-54 -180 0
-54 -222 0
-96 -138 0
-96 -180 0
-96 -222 0
-138 -180 0
-138 -222 0
-180 -222 0
-13 -55 0
-13 -97 0
-13 -139 0
-13 -181 0
-13 -223 0
-55 -97 0
-55 -139 0
-55 -181 0
-55 -223 0
-97 -139 0
-97 -181 0
-97 -223 0
-139 -181 0
-139 -223 0
-181 -223 0
-15 -57 0
-15 -99 0
-15 -141 0
-15 -183 0
-15 -225 0
-57 -99 0
-57 -141 0
-57 -183 0
-57 -225 0
-99 -141 0
-99 -183 0
-99 -225 0
-141 -183 0
-141 -225 0
-183 -225 0
-16 -58 0
-16 -100 0
-16 -142 0
-16 -184 0
-16 -226 0
-58 -100 0
-58 -142 0
-58 -184 0
-58 -226 0
-100 -142 0
-100 -184 0
-100 -226 0
-142 -184 0
-142 -226 0
-184 -226 0
-17 -59 0
-17 -101 0
-17 -143 0
-17 -185 0
-17 -227 0
-59 -101 0
-59 -143 0
-59 -185 0
-59 -227 0
-101 -143 0
-101 -185 0
-101 -227 0
-143 -185 0
-143 -227 0
-185 -227 0
-18 -60 0
-18 -102 0
-18 -144 0
-18 -186 0
-18 -228 0
-60 -102 0
-60 -144 0
-60 -186 0
-60 -228 0
-102 -144 0
-102 -186 0
-102 -228 0
-144 -186 0
-144 -228 0
-186 -228 0
-19 -61 0
-19 -103 0
-19 -145 0
-19 -187 0
-19 -229 0
-61 -103 0
-61 -145 0
-61 -187 0
-61 -229 0
-103 -145 0
-103 -187 0
-103 -229 0
-145 -187 0
-145 -229 0
-187 -229 0
-20 -62 0
-20 -104 0
-20 -146 0
-20 -188 0
-20 -230 0
-62 -104 0
-62 -146 0
-62 -188 0
-62 -230 0
-104 -146 0
-104 -188 0
-104 -230 0
-146 -188 0
-146 -230 0
-188 -230 0
-22 -64 0
-22 -106 0
-22 -148 0
-22 -190 0
-22 -232 0
-64 -106 0
-64 -148 0
-64 -190 0
-64 -232 0
-106 -148 0
-106 -190 0
-106 -232 0
-148 -190 0
-148 -232 0
-190 -232 0
-23 -65 0
-23 -107 0
-23 -149 0
-23 -191 0
-23 -233 0
-65 -107 0
-65 -149 0
-65 -191 0
-65 -233 0
-107 -149 0
-107 -191 0
-107 -233 0
-149 -191 0
-149 -233 0
-191 -233 0
-24 -66 0
-24 -108 0
-24 -150 0
-24 -192 0
-24 -234 0
-66 -108 0
-66 -150 0
-66 -192 0
-66 -234 0
-108 -150 0
-108 -192 0
-108 -234 0
-150 -192 0
-150 -234 0
-192 -234 0
-25 -67 0
-25 -109 0
-25 -151 0
-25 -193 0
-25 -235 0
-67 -109 0
-67 -151 0
-67 -193 0
-67 -235 0
-109 -151 0
-109 -193 0
-109 -235 0
-151 -193 0
-151 -235 0
-193 -235 0
-26 -68 0
-26 -110 0
-26 -152 0
-26 -194 0
-26 -236 0
-68 -110 0
-68 -152 0
-68 -194 0
-68 -236 0
-110 -152 0
-110 -194 0
-110 -236 0
-152 -194 0
-152 -236 0
-194 -236 0
-27 -69 0
-27 -111 0
-27 -153 0
-27 -195 0
-27 -237 0
-69 -111 0
-69 -153 0
-69 -195 0
-69 -237 0
-111 -153 0
-111 -195 0
-111 -237 0
-153 -195 0
-153 -237 0
-195 -237 0
-29 -71 0
-29 -113 0
-29 -155 0
-29 -197 0
-29 -239 0
-71 -113 0
-71 -155 0
-71 -197 0
-71 -239 0
-113 -155 0
-113 -197 0
-113 -239 0
-155 -197 0
-155 -239 0
-197 -239 0
-30 -72 0
-30 -114 0
-30 -156 0
-30 -198 0
-30 -240 0
-72 -114 0
-72 -156 0
-72 -198 0
-72 -240 0
-114 -156 0
-114 -198 0
-114 -240 0
-156 -198 0
-156 -240 0
-198 -240 0
-31 -73 0
-31 -115 0
-31 -157 0
-31 -199 0
-31 -241 0
-73 -115 0
-73 -157 0
-73 -199 0
-73 -241 0
-115 -157 0
-115 -199 0
-115 -241 0
-157 -199 0
-157 -241 0
-199 -241 0
-32 -74 0
-32 -116 0
-32 -158 0
-32 -200 0
-32 -242 0
-74 -116 0
-74 -158 0
-74 -200 0
-74 -242 0
-116 -158 0
-116 -200 0
-116 -242 0
-158 -200 0
-158 -242 0
-200 -242 0
-33 -75 0
-33 -117 0
-33 -159 0
-33 -201 0
-33 -243 0
-75 -117 0
-75 -159 0
-75 -201 0
-75 -243 0
-117 -159 0
-117 -201 0
-117 -243 0
-159 -201 0
-159 -243 0
-201 -243 0
-34 -76 0
-34 -118 0
-34 -160 0
-34 -202 0
-34 -244 0
-76 -118 0
-76 -160 0
-76 -202 0
-76 -244 0
-118 -160 0
-118 -202 0
-118 -244 0
-160 -202 0
-160 -244 0
-202 -244 0
-36 -78 0
-36 -120 0
-36 -162 0
-36 -204 0
-36 -246 0
-78 -120 0
-78 -162 0
-78 -204 0
-78 -246 0
-120 -162 0
-120 -204 0
-120 -246 0
-162 -204 0
-162 -246 0
-204 -246 0
-37 -79 0
-37 -121 0
-37 -163 0
-37 -205 0
-37 -247 0
-79 -121 0
-79 -163 0
-79 -205 0
-79 -247 0
-121 -163 0
-121 -205 0
-121 -247 0
-163 -205 0
-163 -247 0
-205 -247 0
-38 -80 0
-38 -122 0
-38 -164 0
-38 -206 0
-38 -248 0
-80 -122 0
-80 -164 0
-80 -206 0
-80 -248 0
-122 -164 0
-122 -206 0
-122 -248 0
-164 -206 0
-164 -248 0
-206 -248 0
-39 -81 0
-39 -123 0
-39 -165 0
-39 -207 0
-39 -249 0
-81 -123 0
-81 -165 0
-81 -207 0
-81 -249 0
-123 -165 0
-123 -207 0
-123 -249 0
-165 -207 0
-165 -249 0
-207 -249 0
-40 -82 0
-40 -124 0
-40 -166 0
-40 -208 0
-40 -250 0
-82 -124 0
-82 -166 0
-82 -208 0
-82 -250 0
-124 -166 0
-124 -208 0
-124 -250 0
-166 -208 0
-166 -250 0
-208 -250 0
-41 -83 0
-41 -125 0
-41 -167 0
-41 -209 0
-41 -251 0
-83 -125 0
-83 -167 0
-83 -209 0
-83 -251 0
-125 -167 0
-125 -209 0
-125 -251 0
-167 -209 0
-167 -251 0
-209 -251 0
1 8 15 22 29 36 0
2 9 16 23 30 37 0
3 10 17 24 31 38 0
4 11 18 25 32 39 0
5 12 19 26 33 40 0
6 13 20 27 34 41 0
43 50 57 64 71 78 0
44 51 58 65 72 79 0
45 52 59 66 73 80 0
46 53 60 67 74 81 0
47 54 61 68 75 82 0
48 55 62 69 76 83 0
85 92 99 106 113 120 0
86 93 100 107 114 121 0
87 94 101 108 115 122 0
88 95 102 109 116 123 0
89 96 103 110 117 124 0
90 97 104 111 118 125 0
127 134 141 148 155 162 0
128 135 142 149 156 163 0
129 136 143 150 157 164 0
130 137 144 151 158 165 0
131 138 145 152 159 166 0
132 139 146 153 160 167 0
169 176 183 190 197 204 0
170 177 184 191 198 205 0
171 178 185 192 199 206 0
172 179 186 193 200 207 0
173 180 187 194 201 208 0
174 181 188 195 202 209 0
211 218 225 232 239 246 0
212 219 226 233 240 247 0
213 220 227 234 241 248 0
214 221 228 235 242 249 0
215 222 229 236 243 250 0
216 223 230 237 244 251 0
1 43 85 127 169 211 0
2 44 86 128 170 212 0
3 45 87 129 171 213 0
4 46 88 130 172 214 0
5 47 89 131 173 215 0
6 48 90 132 174 216 0
8 50 92 134 176 218 0
9 51 93 135 177 219 0
10 52 94 136 178 220 0
11 53 95 137 179 221 0
12 54 96 138 180 222 0
13 55 97 139 181 223 0
15 57 99 141 183 225 0
16 58 100 142 184 226 0
17 59 101 143 185 227 0
18 60 102 144 186 228 0
19 61 103 145 187 229 0
20 62 104 146 188 230 0
22 64 106 148 190 232 0
23 65 107 149 191 233 0
24 66 108 150 192 234 0
25 67 109 151 193 235 0
26 68 110 152 194 236 0
27 69 111 153 195 237 0
29 71 113 155 197 239 0
30 72 114 156 198 240 0
31 73 115 157 199 241 0
32 74 116 158 200 242 0
33 75 117 159 201 243 0
34 76 118 160 202 244 0
36 78 120 162 204 246 0
37 79 121 163 205 247 0
38 80 122 164 206 248 0
39 81 123 165 207 249 0
40 82 124 166 208 250 0
41 83 125 167 209 251 0
-7 -14 -21 0
-7 -14 -28 0
-7 -14 -35 0
-7 -14 -42 0
-7 -21 -28 0
-7 -21 -35 0
-7 -21 -42 0
-7 -28 -35 0
-7 -28 -42 0
-7 -35 -42 0
-14 -21 -28 0
-14 -21 -35 0
-14 -21 -42 0
-14 -28 -35 0
-14 -28 -42 0
-14 -35 -42 0
-21 -28 -35 0
-21 -28 -42 0
-21 -35 -42 0
-28 -35 -42 0
-49 -56 -63 0
-49 -56 -70 0
-49 -56 -77 0
-49 -56 -84 0
-49 -63 -70 0
-49 -63 -77 0
-49 -63 -84 0
-49 -70 -77 0
-49 -70 -84 0
-49 -77 -84 0
-56 -63 -70 0
-56 -63 -77 0
-56 -63 -84 0
-56 -70 -77 0
-56 -70 -84 0
-56 -77 -84 0
-63 -70 -77 0
-63 -70 -84 0
-63 -77 -84 0
-70 -77 -84 0
-91 -98 -105 0
-91 -98 -112 0
-91 -98 -119 0
-91 -98 -126 0
-91 -105 -112 0
-91 -105 -119 0
-91 -105 -126 0
-91 -112 -119 0
-91 -112 -126 0
-91 -119 -126 0
-98 -105 -112 0
-98 -105 -119 0
-98 -105 -126 0
-98 -112 -119 0
-98 -112 -126 0
-98 -119 -126 0
-105 -112 -119 0
-105 -112 -126 0
-105 -119 -126 0
-112 -119 -126 0
-133 -140 -147 0
-133 -140 -154 0
-133 -140 -161 0
-133 -140 -168 0
-133 -147 -154 0
-133 -147 -161 0
-133 -147 -168 0
-133 -154 -161 0
-133 -154 -168 0
-133 -161 -168 0
-140 -147 -154 0
-140 -147 -161 0
-140 -147 -168 0
-140 -154 -161 0
-140 -154 -168 0
-140 -161 -168 0
-147 -154 -161 0
-147 -154 -168 0
-147 -161 -168 0
-154 -161 -168 0
-175 -182 -189 0
-175 -182 -196 0
-175 -182 -203 0
-175 -182 -210 0
-175 -189 -196 0
-175 -189 -203 0
-175 -189 -210 0
-175 -196 -203 0
-175 -196 -210 0
-175 -203 -210 0
-182 -189 -196 0
-182 -189 -203 0
-182 -189 -210 0
-182 -196 -203 0
-182 -196 -210 0
-182 -203 -210 0
-189 -196 -203 0
-189 -196 -210 0
-189 -203 -210 0
-196 -203 -210 0
-217 -224 -231 0
-217 -224 -238 0
-217 -224 -245 0
-217 -224 -252 0
-217 -231 -238 0
-217 -231 -245 0
-217 -231 -252 0
-217 -238 -245 0
-217 -238 -252 0
-217 -245 -252 0
-224 -231 -238 0
-224 -231 -245 0
-224 -231 -252 0
-224 -238 -245 0
-224 -238 -252 0
-224 -245 -252 0
-231 -238 -245 0
-231 -238 -252 0
-231 -245 -252 0
-238 -245 -252 0
-7 -49 -91 0
-7 -49 -133 0
-7 -49 -175 0
-7 -49 -217 0
-7 -91 -133 0
-7 -91 -175 0
-7 -91 -217 0
-7 -133 -175 0
-7 -133 -217 0
-7 -175 -217 0
-49 -91 -133 0
-49 -91 -175 0
-49 -91 -217 0
-49 -133 -175 0
-49 -133 -217 0
-49 -175 -217 0
-91 -133 -175 0
-91 -133 -217 0
-91 -175 -217 0
-133 -175 -217 0
-14 -56 -98 0
-14 -56 -140 0
-14 -56 -182 0
-14 -56 -224 0
-14 -98 -140 0
-14 -98 -182 0
-14 -98 -224 0
-14 -140 -182 0
-14 -140 -224 0
-14 -182 -224 0
-56 -98 -140 0
-56 -98 -182 0
-56 -98 -224 0
-56 -140 -182 0
-56 -140 -224 0
-56 -182 -224 0
-98 -140 -182 0
-98 -140 -224 0
-98 -182 -224 0
-140 -182 -224 0
-21 -63 -105 0
-21 -63 -147 0
-21 -63 -189 0
-21 -63 -231 0
-21 -105 -147 0
-21 -105 -189 0
-21 -105 -231 0
-21 -147 -189 0
-21 -147 -231 0
-21 -189 -231 0
-63 -105 -147 0
-63 -105 -189 0
-63 -105 -231 0
-63 -147 -189 0
-63 -147 -231 0
-63 -189 -231 0
-105 -147 -189 0
-105 -147 -231 0
-105 -189 -231 0
-147 -189 -231 0
-28 -70 -112 0
-28 -70 -154 0
-28 -70 -196 0
-28 -70 -238 0
-28 -112 -154 0
-28 -112 -196 0
-28 -112 -238 0
-28 -154 -196 0
-28 -154 -238 0
-28 -196 -238 0
-70 -112 -154 0
-70 -112 -196 0
-70 -112 -238 0
-70 -154 -196 0
-70 -154 -238 0
-70 -196 -238 0
-112 -154 -196 0
-112 -154 -238 0
-112 -196 -238 0
-154 -196 -238 0
-35 -77 -119 0
-35 -77 -161 0
-35 -77 -203 0
-35 -77 -245 0
-35 -119 -161 0
-35 -119 -203 0
-35 -119 -245 0
-35 -161 -203 0
-35 -161 -245 0
-35 -203 -245 0
-77 -119 -161 0
-77 -119 -203 0
-77 -119 -245 0
-77 -161 -203 0
-77 -161 -245 0
-77 -203 -245 0
-119 -161 -203 0
-119 -161 -245 0
-119 -203 -245 0
-161 -203 -245 0
-42 -84 -126 0
-42 -84 -168 0
-42 -84 -210 0
-42 -84 -252 0
-42 -126 -168 0
-42 -126 -210 0
-42 -126 -252 0
-42 -168 -210 0
-42 -168 -252 0
-42 -210 -252 0
-84 -126 -168 0
-84 -126 -210 0
-84 -126 -252 0
-84 -168 -210 0
-84 -168 -252 0
-84 -210 -252 0
-126 -168 -210 0
-126 -168 -252 0
-126 -210 -252 0
-168 -210 -252 0
-1 0
-2 0
-4 0
-5 0
-6 0
-43 -7 0
-44 -7 0
-46 -7 0
-47 -7 0
-48 -7 0
-85 -7 -49 0
-86 -7 -49 0
-88 -7 -49 0
-89 -7 -49 0
-90 -7 -49 0
-127 -7 -49 -91 0
-128 -7 -49 -91 0
-130 -7 -49 -91 0
-131 -7 -49 -91 0
-132 -7 -49 -91 0
-169 -7 -49 -91 -133 0
-170 -7 -49 -91 -133 0
-172 -7 -49 -91 -133 0
-173 -7 -49 -91 -133 0
-174 -7 -49 -91 -133 0
-211 -7 -49 -91 -133 -175 0
-212 -7 -49 -91 -133 -175 0
-214 -7 -49 -91 -133 -175 0
-215 -7 -49 -91 -133 -175 0
-216 -7 -49 -91 -133 -175 0
-211 0
-213 0
-214 0
-215 0
-216 0
-169 -217 0
-171 -217 0
-172 -217 0
-173 -217 0
-174 -217 0
-127 -217 -175 0
-129 -217 -175 0
-130 -217 -175 0
-131 -217 -175 0
-132 -217 -175 0
-85 -217 -175 -133 0
-87 -217 -175 -133 0
-88 -217 -175 -133 0
-89 -217 -175 -133 0
-90 -217 -175 -133 0
-43 -217 -175 -133 -91 0
-45 -217 -175 -133 -91 0
-46 -217 -175 -133 -91 0
-47 -217 -175 -133 -91 0
-48 -217 -175 -133 -91 0
-1 -217 -175 -133 -91 -49 0
-3 -217 -175 -133 -91 -49 0
-4 -217 -175 -133 -91 -49 0
-5 -217 -175 -133 -91 -49 0
-6 -217 -175 -133 -91 -49 0
-9 0
-10 0
-11 0
-12 0
-13 0
-51 -14 0
-52 -14 0
-53 -14 0
-54 -14 0
-55 -14 0
-93 -14 -56 0
-94 -14 -56 0
-95 -14 -56 0
-96 -14 -56 0
-97 -14 -56 0
-135 -14 -56 -98 0
-136 -14 -56 -98 0
-137 -14 -56 -98 0
-138 -14 -56 -98 0
-139 -14 -56 -98 0
-177 -14 -56 -98 -140 0
-178 -14 -56 -98 -140 0
-179 -14 -56 -98 -140 0
-180 -14 -56 -98 -140 0
-181 -14 -56 -98 -140 0
-219 -14 -56 -98 -140 -182 0
-220 -14 -56 -98 -140 -182 0
-221 -14 -56 -98 -140 -182 0
-222 -14 -56 -98 -140 -182 0
-223 -14 -56 -98 -140 -182 0
-16 0
-17 0
-18 0
-19 0
-20 0
-58 -21 0
-59 -21 0
-60 -21 0
-61 -21 0
-62 -21 0
-100 -21 -63 0
-101 -21 -63 0
-102 -21 -63 0
-103 -21 -63 0
-104 -21 -63 0
-142 -21 -63 -105 0
-143 -21 -63 -105 0
-144 -21 -63 -105 0
-145 -21 -63 -105 0
-146 -21 -63 -105 0
-184 -21 -63 -105 -147 0
-185 -21 -63 -105 -147 0
-186 -21 -63 -105 -147 0
-187 -21 -63 -105 -147 0
-188 -21 -63 -105 -147 0
-226 -21 -63 -105 -147 -189 0
-227 -21 -63 -105 -147 -189 0
-228 -21 -63 -105 -147 -189 0
-229 -21 -63 -105 -147 -189 0
-230 -21 -63 -105 -147 -189 0
-29 0
-30 0
-31 0
-33 0
-34 0
-71 -35 0
-72 -35 0
-73 -35 0
-75 -35 0
-76 -35 0
-113 -35 -77 0
-114 -35 -77 0
-115 -35 -77 0
-117 -35 -77 0
-118 -35 -77 0
-155 -35 -77 -119 0
-156 -35 -77 -119 0
-157 -35 -77 -119 0
-159 -35 -77 -119 0
-160 -35 -77 -119 0
-197 -35 -77 -119 -161 0
-198 -35 -77 -119 -161 0
-199 -35 -77 -119 -161 0
-201 -35 -77 -119 -161 0
-202 -35 -77 -119 -161 0
-239 -35 -77 -119 -161 -203 0
-240 -35 -77 -119 -161 -203 0
-241 -35 -77 -119 -161 -203 0
-243 -35 -77 -119 -161 -203 0
-244 -35 -77 -119 -161 -203 0
-239 0
-240 0
-242 0
-243 0
-244 0
-197 -245 0
-198 -245 0
-200 -245 0
-201 -245 0
-202 -245 0
-155 -245 -203 0
-156 -245 -203 0
-158 -245 -203 0
-159 -245 -203 0
-160 -245 -203 0
-113 -245 -203 -161 0
-114 -245 -203 -161 0
-116 -245 -203 -161 0
-117 -245 -203 -161 0
-118 -245 -203 -161 0
-71 -245 -203 -161 -119 0
-72 -245 -203 -161 -119 0
-74 -245 -203 -161 -119 0
-75 -245 -203 -161 -119 0
-76 -245 -203 -161 -119 0
-29 -245 -203 -161 -119 -77 0
-30 -245 -203 -161 -119 -77 0
-32 -245 -203 -161 -119 -77 0
-33 -245 -203 -161 -119 -77 0
-34 -245 -203 -161 -119 -77 0
-36 0
-38 0
-39 0
-40 0
-41 0
-78 -42 0
-80 -42 0
-81 -42 0
-82 -42 0
-83 -42 0
-120 -42 -84 0
-122 -42 -84 0
-123 -42 -84 0
-124 -42 -84 0
-125 -42 -84 0
-162 -42 -84 -126 0
-164 -42 -84 -126 0
-165 -42 -84 -126 0
-166 -42 -84 -126 0
-167 -42 -84 -126 0
-204 -42 -84 -126 -168 0
-206 -42 -84 -126 -168 0
-207 -42 -84 -126 -168 0
-208 -42 -84 -126 -168 0
-209 -42 -84 -126 -168 0
-246 -42 -84 -126 -168 -210 0
-248 -42 -84 -126 -168 -210 0
-249 -42 -84 -126 -168 -210 0
-250 -42 -84 -126 -168 -210 0
-251 -42 -84 -126 -168 -210 0
-246 0
-247 0
-248 0
-250 0
-251 0
-204 -252 0
-205 -252 0
-206 -252 0
-208 -252 0
-209 -252 0
-162 -252 -210 0
-163 -252 -210 0
-164 -252 -210 0
-166 -252 -210 0
-167 -252 -210 0
-120 -252 -210 -168 0
-121 -252 -210 -168 0
-122 -252 -210 -168 0
-124 -252 -210 -168 0
-125 -252 -210 -168 0
-78 -252 -210 -168 -126 0
-79 -252 -210 -168 -126 0
-80 -252 -210 -168 -126 0
-82 -252 -210 -168 -126 0
-83 -252 -210 -168 -126 0
-36 -252 -210 -168 -126 -84 0
-37 -252 -210 -168 -126 -84 0
-38 -252 -210 -168 -126 -84 0
-40 -252 -210 -168 -126 -84 0
-41 -252 -210 -168 -126 -84 0
-36 0
-38 0
-39 0
-40 0
-41 0
-29 -42 0
-31 -42 0
-32 -42 0
-33 -42 0
-34 -42 0
-22 -42 -35 0
-24 -42 -35 0
-25 -42 -35 0
-26 -42 -35 0
-27 -42 -35 0
-15 -42 -35 -28 0
-17 -42 -35 -28 0
-18 -42 -35 -28 0
-19 -42 -35 -28 0
-20 -42 -35 -28 0
-8 -42 -35 -28 -21 0
-10 -42 -35 -28 -21 0
-11 -42 -35 -28 -21 0
-12 -42 -35 -28 -21 0
-13 -42 -35 -28 -21 0
-1 -42 -35 -28 -21 -14 0
-3 -42 -35 -28 -21 -14 0
-4 -42 -35 -28 -21 -14 0
-5 -42 -35 -28 -21 -14 0
-6 -42 -35 -28 -21 -14 0
-43 0
-44 0
-45 0
-47 0
-48 0
-50 -49 0
-51 -49 0
-52 -49 0
-54 -49 0
-55 -49 0
-57 -49 -56 0
-58 -49 -56 0
-59 -49 -56 0
-61 -49 -56 0
-62 -49 -56 0
-64 -49 -56 -63 0
-65 -49 -56 -63 0
-66 -49 -56 -63 0
-68 -49 -56 -63 0
-69 -49 -56 -63 0
-71 -49 -56 -63 -70 0
-72 -49 -56 -63 -70 0
-73 -49 -56 -63 -70 0
-75 -49 -56 -63 -70 0
-76 -49 -56 -63 -70 0
-78 -49 -56 -63 -70 -77 0
-79 -49 -56 -63 -70 -77 0
-80 -49 -56 -63 -70 -77 0
-82 -49 -56 -63 -70 -77 0
-83 -49 -56 -63 -70 -77 0
-78 0
-79 0
-81 0
-82 0
-83 0
-71 -84 0
-72 -84 0
-74 -84 0
-75 -84 0
-76 -84 0
-64 -84 -77 0
-65 -84 -77 0
-67 -84 -77 0
-68 -84 -77 0
-69 -84 -77 0
-57 -84 -77 -70 0
-58 -84 -77 -70 0
-60 -84 -77 -70 0
-61 -84 -77 -70 0
-62 -84 -77 -70 0
-50 -84 -77 -70 -63 0
-51 -84 -77 -70 -63 0
-53 -84 -77 -70 -63 0
-54 -84 -77 -70 -63 0
-55 -84 -77 -70 -63 0
-43 -84 -77 -70 -63 -56 0
-44 -84 -77 -70 -63 -56 0
-46 -84 -77 -70 -63 -56 0
-47 -84 -77 -70 -63 -56 0
-48 -84 -77 -70 -63 -56 0
-86 0
-87 0
-88 0
-89 0
-90 0
-93 -91 0
-94 -91 0
-95 -91 0
-96 -91 0
-97 -91 0
-100 -91 -98 0
-101 -91 -98 0
-102 -91 -98 0
-103 -91 -98 0
-104 -91 -98 0
-107 -91 -98 -105 0
-108 -91 -98 -105 0
-109 -91 -98 -105 0
-110 -91 -98 -105 0
-111 -91 -98 -105 0
-114 -91 -98 -105 -112 0
-115 -91 -98 -105 -112 0
-116 -91 -98 -105 -112 0
-117 -91 -98 -105 -112 0
-118 -91 -98 -105 -112 0
-121 -91 -98 -105 -112 -119 0
-122 -91 -98 -105 -112 -119 0
-123 -91 -98 -105 -112 -119 0
-124 -91 -98 -105 -112 -119 0
-125 -91 -98 -105 -112 -119 0
-127 0
-128 0
-130 0
-131 0
-132 0
-134 -133 0
-135 -133 0
-137 -133 0
-138 -133 0
-139 -133 0
-141 -133 -140 0
-142 -133 -140 0
-144 -133 -140 0
-145 -133 -140 0
-146 -133 -140 0
-148 -133 -140 -147 0
-149 -133 -140 -147 0
-151 -133 -140 -147 0
-152 -133 -140 -147 0
-153 -133 -140 -147 0
-155 -133 -140 -147 -154 0
-156 -133 -140 -147 -154 0
-158 -133 -140 -147 -154 0
-159 -133 -140 -147 -154 0
-160 -133 -140 -147 -154 0
-162 -133 -140 -147 -154 -161 0
-163 -133 -140 -147 -154 -161 0
-165 -133 -140 -147 -154 -161 0
-166 -133 -140 -147 -154 -161 0
-167 -133 -140 -147 -154 -161 0
-204 0
-205 0
-206 0
-208 0
-209 0
-197 -210 0
-198 -210 0
-199 -210 0
-201 -210 0
-202 -210 0
-190 -210 -203 0
-191 -210 -203 0
-192 -210 -203 0
-194 -210 -203 0
-195 -210 -203 0
-183 -210 -203 -196 0
-184 -210 -203 -196 0
-185 -210 -203 -196 0
-187 -210 -203 -196 0
-188 -210 -203 -196 0
-176 -210 -203 -196 -189 0
-177 -210 -203 -196 -189 0
-178 -210 -203 -196 -189 0
-180 -210 -203 -196 -189 0
-181 -210 -203 -196 -189 0
-169 -210 -203 -196 -189 -182 0
-170 -210 -203 -196 -189 -182 0
-171 -210 -203 -196 -189 -182 0
-173 -210 -203 -196 -189 -182 0
-174 -210 -203 -196 -189 -182 0
-247 0
-248 0
-249 0
-250 0
-251 0
-240 -252 0
-241 -252 0
-242 -252 0
-243 -252 0
-244 -252 0
-233 -252 -245 0
-234 -252 -245 0
-235 -252 -245 0
-236 -252 -245 0
-237 -252 -245 0
-226 -252 -245 -238 0
-227 -252 -245 -238 0
-228 -252 -245 -238 0
-229 -252 -245 -238 0
-230 -252 -245 -238 0
-219 -252 -245 -238 -231 0
-220 -252 -245 -238 -231 0
-221 -252 -245 -238 -231 0
-222 -252 -245 -238 -231 0
-223 -252 -245 -238 -231 0
-212 -252 -245 -238 -231 -224 0
-213 -252 -245 -238 -231 -224 0
-214 -252 -245 -238 -231 -224 0
-215 -252 -245 -238 -231 -224 0
-216 -252 -245 -238 -231 -224 0
