1 2 3 4 5 6 0
-1 -2 -3 -4 -5 -6 0
9 0
7 8 9 10 11 12 0
-7 -8 -9 -10 -11 -12 0
13 14 15 16 17 18 0
-13 -14 -15 -16 -17 -18 0
24 0
19 20 21 22 23 24 0
-19 -20 -21 -22 -23 -24 0
28 0
25 26 27 28 29 30 0
-25 -26 -27 -28 -29 -30 0
31 0
31 32 33 34 35 36 0
-31 -32 -33 -34 -35 -36 0
41 0
37 38 39 40 41 42 0
-37 -38 -39 -40 -41 -42 0
43 44 45 46 47 48 0
-43 -44 -45 -46 -47 -48 0
49 50 51 52 53 54 0
-49 -50 -51 -52 -53 -54 0
55 56 57 58 59 60 0
-55 -56 -57 -58 -59 -60 0
61 62 63 64 65 66 0
-61 -62 -63 -64 -65 -66 0
67 68 69 70 71 72 0
-67 -68 -69 -70 -71 -72 0
73 0
73 74 75 76 77 78 0
-73 -74 -75 -76 -77 -78 0
79 80 81 82 83 84 0
-79 -80 -81 -82 -83 -84 0
85 86 87 88 89 90 0
-85 -86 -87 -88 -89 -90 0
91 92 93 94 95 96 0
-91 -92 -93 -94 -95 -96 0
97 98 99 100 101 102 0
-97 -98 -99 -100 -101 -102 0
107 0
103 104 105 106 107 108 0
-103 -104 -105 -106 -107 -108 0
112 0
109 110 111 112 113 114 0
-109 -110 -111 -112 -113 -114 0
115 116 117 118 119 120 0
-115 -116 -117 -118 -119 -120 0
121 122 123 124 125 126 0
-121 -122 -123 -124 -125 -126 0
127 128 129 130 131 132 0
-127 -128 -129 -130 -131 -132 0
133 134 135 136 137 138 0
-133 -134 -135 -136 -137 -138 0
140 0
139 140 141 142 143 144 0
-139 -140 -141 -142 -143 -144 0
150 0
145 146 147 148 149 150 0
-145 -146 -147 -148 -149 -150 0
151 152 153 154 155 156 0
-151 -152 -153 -154 -155 -156 0
157 158 159 160 161 162 0
-157 -158 -159 -160 -161 -162 0
163 164 165 166 167 168 0
-163 -164 -165 -166 -167 -168 0
169 170 171 172 173 174 0
-169 -170 -171 -172 -173 -174 0
178 0
175 176 177 178 179 180 0
-175 -176 -177 -178 -179 -180 0
183 0
181 182 183 184 185 186 0
-181 -182 -183 -184 -185 -186 0
187 188 189 190 191 192 0
-187 -188 -189 -190 -191 -192 0
193 0
193 194 195 196 197 198 0
-193 -194 -195 -196 -197 -198 0
200 0
199 200 201 202 203 204 0
-199 -200 -201 -202 -203 -204 0
205 206 207 208 209 210 0
-205 -206 -207 -208 -209 -210 0
216 0
211 212 213 214 215 216 0
-211 -212 -213 -214 -215 -216 0
